52      4       
10      10      10      10      
0       0       0       0       0       5       2       3       4       5       11      
1       1       2       1       1       5       6       7       8       10      16      
7       0       5       0       6       4       9       14      16      21      
4       5       0       4       3       3       8       14      15      
7       0       0       9       9       3       9       16      21      
1       0       0       0       10      7       13      14      15      19      20      21      22      
10      0       0       0       10      7       13      14      15      19      20      21      22      
10      0       5       0       7       6       12      13      18      19      21      25      
1       0       6       6       3       4       12      13      15      19      
6       0       0       0       10      4       12      13      18      21      
5       6       5       4       1       4       15      19      20      21      
1       0       0       6       9       5       17      20      22      23      33      
8       0       0       0       7       6       23      26      27      28      31      33      
4       5       5       6       3       4       23      25      26      27      
2       0       0       0       10      2       17      25      
9       6       0       0       7       2       18      33      
5       0       0       0       6       5       26      27      28      29      31      
5       0       0       7       8       5       24      27      28      30      31      
3       0       0       0       10      6       27      28      29      30      33      36      
4       0       0       0       10      4       24      27      30      31      
5       0       0       0       8       5       28      30      32      33      36      
5       0       5       0       3       5       30      31      32      35      36      
1       0       0       7       8       1       24      
3       0       5       0       4       3       29      35      36      
4       6       0       7       7       4       31      32      34      36      
7       4       4       3       2       2       30      36      
3       0       0       0       10      4       32      35      37      38      
9       0       0       0       8       4       34      35      37      38      
9       0       0       0       10      3       32      34      37      
5       0       0       0       7       3       34      37      38      
8       0       0       0       8       3       37      41      42      
10      0       0       0       10      5       40      41      42      44      51      
4       5       5       3       3       5       40      41      42      44      51      
5       0       0       0       6       5       40      41      44      50      51      
2       0       0       0       8       4       40      41      42      51      
6       0       0       0       10      3       38      42      51      
3       0       0       0       10      4       39      40      44      51      
10      0       8       0       6       3       40      43      50      
4       0       5       6       4       4       43      45      48      49      
9       0       0       0       10      4       45      47      48      49      
5       0       0       7       6       3       43      45      48      
3       0       0       0       10      3       45      47      50      
10      0       0       0       10      2       46      47      
7       0       0       0       10      2       46      48      
5       0       0       0       4       1       46      
9       0       0       0       6       1       52      
1       0       0       0       10      1       52      
4       0       0       0       6       1       52      
3       0       0       0       10      1       52      
6       0       0       0       10      1       52      
2       0       2       3       4       1       52      
0       0       0       0       0       0       
